language Essence 1.3

letting class be function(1 --> 5, 2 --> 4, 3 --> 3, 4 --> 5, 5 --> 1, 6 --> 2)
letting deck_length be 78
letting deck_width be 79
letting length be function(1 --> 59, 2 --> 20, 3 --> 32, 4 --> 5, 5 --> 59, 6 --> 5)
letting n_classes be 5
letting n_containers be 6
letting separation be function({3, 5} --> 72, {4, 5} --> 62)
letting width be function(1 --> 16, 2 --> 6, 3 --> 9, 4 --> 20, 5 --> 39, 6 --> 1)
